NAME: ACTUAL_TOURS/amz2634
TYPE: TOUR
COMMENT: RouteID_55143443-f946-4233-a3e0-199494ee36ba
DIMENSION: 131
TOUR_SECTION
59
57
115
76
77
102
65
129
21
27
106
56
105
70
48
116
98
1
61
83
53
49
89
51
60
122
97
35
86
2
41
20
39
123
85
112
24
118
100
81
107
125
47
66
52
73
117
10
119
18
82
87
55
108
42
23
63
22
75
45
6
92
43
79
29
12
71
99
8
5
131
44
120
78
3
80
15
34
30
25
113
109
67
36
54
94
50
9
37
28
127
88
74
26
111
91
110
38
40
32
68
46
126
62
121
128
4
17
7
58
33
93
31
90
14
95
11
19
13
130
69
72
104
101
103
114
16
96
124
64
84
-1
EOF
